p cnf 21 48
-1 2 3 4 5 6 7 9 10 11 12 15 18 0 
-2 1 3 4 5 6 7 9 10 11 12 15 18 0 
-3 1 2 4 5 6 7 9 10 11 12 15 18 0 
-4 1 2 3 5 6 7 9 10 11 12 15 18 0 
-5 1 2 3 4 6 7 9 10 11 12 15 18 0 
-6 1 2 3 4 5 7 9 10 11 12 15 18 0 
-7 1 2 3 4 5 6 9 10 11 12 15 18 0 
-5 1 2 3 4 6 7 9 10 11 12 15 19 0 
-2 1 3 4 5 6 7 9 10 11 12 15 20 0 
-6 1 2 3 4 5 7 9 10 11 12 15 20 0 
-1 2 3 4 5 6 7 9 10 11 12 15 20 0 
-7 1 2 3 4 5 6 9 10 11 12 15 20 0 
-3 1 2 4 5 6 7 9 10 11 12 15 20 0 
-2 1 3 4 5 6 7 9 10 11 12 15 21 0 
-4 1 2 3 5 6 7 9 10 11 12 15 20 0 
-7 1 2 3 4 5 6 9 10 11 12 15 21 0 
-6 1 2 3 4 5 7 9 10 11 12 15 21 0 
-5 1 2 3 4 6 7 9 10 11 12 15 20 0 
-5 1 2 3 4 6 7 9 10 11 12 15 21 0 
-4 1 2 3 5 6 7 9 10 11 12 15 21 0 
-1 2 3 4 5 6 7 9 10 11 12 15 21 0 
-3 1 2 4 5 6 7 9 10 11 12 15 21 0 
-8 18 0 
-9 1 2 3 4 5 6 7 10 11 12 15 18 0 
-10 1 2 3 4 5 6 7 9 11 12 15 19 0 
-11 1 2 3 4 5 6 7 9 10 12 15 18 0 
-10 1 2 3 4 5 6 7 9 11 12 15 18 0 
-12 1 2 3 4 5 6 7 9 10 11 15 18 0 
-12 1 2 3 4 5 6 7 9 10 11 15 21 0 
-10 1 2 3 4 5 6 7 9 11 12 15 21 0 
-9 1 2 3 4 5 6 7 10 11 12 15 21 0 
-11 1 2 3 4 5 6 7 9 10 12 15 21 0 
-12 1 2 3 4 5 6 7 9 10 11 15 20 0 
-10 1 2 3 4 5 6 7 9 11 12 15 20 0 
-11 1 2 3 4 5 6 7 9 10 12 15 20 0 
-9 1 2 3 4 5 6 7 10 11 12 15 20 0 
-13 18 0 
-14 18 0 
-15 1 2 3 4 5 6 7 9 10 11 12 21 0 
-15 1 2 3 4 5 6 7 9 10 11 12 19 0 
-15 1 2 3 4 5 6 7 9 10 11 12 18 0 
-15 1 2 3 4 5 6 7 9 10 11 12 20 0 
-16 18 0 
-16 21 0 
-9 1 2 3 4 5 6 7 10 11 12 15 19 0 
-14 21 0 
-17 20 0 
-8 20 0 
